pair_coeff 15 15 lj/cut/coul/debye     0.00000000      6.20000000      0.00000000     40.00000000
pair_coeff 15 16 lj/cut/coul/debye     0.00000000      6.20000000      0.00000000     40.00000000
pair_coeff 15 17 lj/cut/coul/debye     0.00000000      6.20000000      0.00000000     40.00000000
pair_coeff 15 18 lj/cut/coul/debye     0.00000000      6.20000000      0.00000000     40.00000000
pair_coeff 15 19 lj/cut/coul/debye     0.00000000      6.20000000      0.00000000     40.00000000
pair_coeff 15 20 lj/cut/coul/debye     0.00000000      6.20000000      0.00000000     40.00000000
pair_coeff 15 21 lj/cut/coul/debye     0.00000000      6.20000000      0.00000000     40.00000000
pair_coeff 15 22 lj/cut/coul/debye     0.00000000      6.20000000      0.00000000     40.00000000
pair_coeff 15 23 lj/cut/coul/debye     0.00000000      6.20000000      0.00000000     40.00000000
pair_coeff 15 24 lj/cut/coul/debye     0.00000000      6.20000000      0.00000000     40.00000000
pair_coeff 15 25 lj/cut/coul/debye     0.00000000      6.20000000      0.00000000     40.00000000
pair_coeff 15 26 lj/cut/coul/debye     0.00000000      6.20000000      0.00000000     40.00000000
pair_coeff 15 27 lj/cut/coul/debye     0.00000000      6.20000000      0.00000000     40.00000000
pair_coeff 15 28 lj/cut/coul/debye     0.00000000      6.20000000      0.00000000     40.00000000
pair_coeff 15 29 lj/cut/coul/debye     0.00000000      6.20000000      0.00000000     40.00000000
pair_coeff 15 30 lj/cut/coul/debye     0.00000000      6.20000000      0.00000000     40.00000000
pair_coeff 15 31 lj/cut/coul/debye     0.00000000      6.20000000      0.00000000     40.00000000
pair_coeff 15 32 lj/cut/coul/debye     0.00000000      6.20000000      0.00000000     40.00000000
pair_coeff 15 33 lj/cut/coul/debye     0.00000000      6.20000000      0.00000000     40.00000000
pair_coeff 15 34 lj/cut/coul/debye     0.00000000      6.20000000      0.00000000     40.00000000
pair_coeff 16 16 lj/cut/coul/debye     0.00000000      6.20000000      0.00000000     40.00000000
pair_coeff 16 17 lj/cut/coul/debye     0.00000000      6.20000000      0.00000000     40.00000000
pair_coeff 16 18 lj/cut/coul/debye     0.00000000      6.20000000      0.00000000     40.00000000
pair_coeff 16 19 lj/cut/coul/debye     0.00000000      6.20000000      0.00000000     40.00000000
pair_coeff 16 20 lj/cut/coul/debye     0.00000000      6.20000000      0.00000000     40.00000000
pair_coeff 16 21 lj/cut/coul/debye     0.00000000      6.20000000      0.00000000     40.00000000
pair_coeff 16 22 lj/cut/coul/debye     0.00000000      6.20000000      0.00000000     40.00000000
pair_coeff 16 23 lj/cut/coul/debye     0.00000000      6.20000000      0.00000000     40.00000000
pair_coeff 16 24 lj/cut/coul/debye     0.00000000      6.20000000      0.00000000     40.00000000
pair_coeff 16 25 lj/cut/coul/debye     0.00000000      6.20000000      0.00000000     40.00000000
pair_coeff 16 26 lj/cut/coul/debye     0.00000000      6.20000000      0.00000000     40.00000000
pair_coeff 16 27 lj/cut/coul/debye     0.00000000      6.20000000      0.00000000     40.00000000
pair_coeff 16 28 lj/cut/coul/debye     0.00000000      6.20000000      0.00000000     40.00000000
pair_coeff 16 29 lj/cut/coul/debye     0.00000000      6.20000000      0.00000000     40.00000000
pair_coeff 16 30 lj/cut/coul/debye     0.00000000      6.20000000      0.00000000     40.00000000
pair_coeff 16 31 lj/cut/coul/debye     0.00000000      6.20000000      0.00000000     40.00000000
pair_coeff 16 32 lj/cut/coul/debye     0.00000000      6.20000000      0.00000000     40.00000000
pair_coeff 16 33 lj/cut/coul/debye     0.00000000      6.20000000      0.00000000     40.00000000
pair_coeff 16 34 lj/cut/coul/debye     0.00000000      6.20000000      0.00000000     40.00000000
pair_coeff 17 17 lj/cut/coul/debye     0.00000000      6.20000000      0.00000000     40.00000000
pair_coeff 17 18 lj/cut/coul/debye     0.00000000      6.20000000      0.00000000     40.00000000
pair_coeff 17 19 lj/cut/coul/debye     0.00000000      6.20000000      0.00000000     40.00000000
pair_coeff 17 20 lj/cut/coul/debye     0.00000000      6.20000000      0.00000000     40.00000000
pair_coeff 17 21 lj/cut/coul/debye     0.00000000      6.20000000      0.00000000     40.00000000
pair_coeff 17 22 lj/cut/coul/debye     0.00000000      6.20000000      0.00000000     40.00000000
pair_coeff 17 23 lj/cut/coul/debye     0.00000000      6.20000000      0.00000000     40.00000000
pair_coeff 17 24 lj/cut/coul/debye     0.00000000      6.20000000      0.00000000     40.00000000
pair_coeff 17 25 lj/cut/coul/debye     0.00000000      6.20000000      0.00000000     40.00000000
pair_coeff 17 26 lj/cut/coul/debye     0.00000000      6.20000000      0.00000000     40.00000000
pair_coeff 17 27 lj/cut/coul/debye     0.00000000      6.20000000      0.00000000     40.00000000
pair_coeff 17 28 lj/cut/coul/debye     0.00000000      6.20000000      0.00000000     40.00000000
pair_coeff 17 29 lj/cut/coul/debye     0.00000000      6.20000000      0.00000000     40.00000000
pair_coeff 17 30 lj/cut/coul/debye     0.00000000      6.20000000      0.00000000     40.00000000
pair_coeff 17 31 lj/cut/coul/debye     0.00000000      6.20000000      0.00000000     40.00000000
pair_coeff 17 32 lj/cut/coul/debye     0.00000000      6.20000000      0.00000000     40.00000000
pair_coeff 17 33 lj/cut/coul/debye     0.00000000      6.20000000      0.00000000     40.00000000
pair_coeff 17 34 lj/cut/coul/debye     0.00000000      6.20000000      0.00000000     40.00000000
pair_coeff 18 18 lj/cut/coul/debye     0.00000000      6.20000000      0.00000000     40.00000000
pair_coeff 18 19 lj/cut/coul/debye     0.00000000      6.20000000      0.00000000     40.00000000
pair_coeff 18 20 lj/cut/coul/debye     0.00000000      6.20000000      0.00000000     40.00000000
pair_coeff 18 21 lj/cut/coul/debye     0.00000000      6.20000000      0.00000000     40.00000000
pair_coeff 18 22 lj/cut/coul/debye     0.00000000      6.20000000      0.00000000     40.00000000
pair_coeff 18 23 lj/cut/coul/debye     0.00000000      6.20000000      0.00000000     40.00000000
pair_coeff 18 24 lj/cut/coul/debye     0.00000000      6.20000000      0.00000000     40.00000000
pair_coeff 18 25 lj/cut/coul/debye     0.00000000      6.20000000      0.00000000     40.00000000
pair_coeff 18 26 lj/cut/coul/debye     0.00000000      6.20000000      0.00000000     40.00000000
pair_coeff 18 27 lj/cut/coul/debye     0.00000000      6.20000000      0.00000000     40.00000000
pair_coeff 18 28 lj/cut/coul/debye     0.00000000      6.20000000      0.00000000     40.00000000
pair_coeff 18 29 lj/cut/coul/debye     0.00000000      6.20000000      0.00000000     40.00000000
pair_coeff 18 30 lj/cut/coul/debye     0.00000000      6.20000000      0.00000000     40.00000000
pair_coeff 18 31 lj/cut/coul/debye     0.00000000      6.20000000      0.00000000     40.00000000
pair_coeff 18 32 lj/cut/coul/debye     0.00000000      6.20000000      0.00000000     40.00000000
pair_coeff 18 33 lj/cut/coul/debye     0.00000000      6.20000000      0.00000000     40.00000000
pair_coeff 18 34 lj/cut/coul/debye     0.00000000      6.20000000      0.00000000     40.00000000
pair_coeff 19 19 lj/cut/coul/debye     0.00000000      6.20000000      0.00000000     40.00000000
pair_coeff 19 20 lj/cut/coul/debye     0.00000000      6.20000000      0.00000000     40.00000000
pair_coeff 19 21 lj/cut/coul/debye     0.00000000      6.20000000      0.00000000     40.00000000
pair_coeff 19 22 lj/cut/coul/debye     0.00000000      6.20000000      0.00000000     40.00000000
pair_coeff 19 23 lj/cut/coul/debye     0.00000000      6.20000000      0.00000000     40.00000000
pair_coeff 19 24 lj/cut/coul/debye     0.00000000      6.20000000      0.00000000     40.00000000
pair_coeff 19 25 lj/cut/coul/debye     0.00000000      6.20000000      0.00000000     40.00000000
pair_coeff 19 26 lj/cut/coul/debye     0.00000000      6.20000000      0.00000000     40.00000000
pair_coeff 19 27 lj/cut/coul/debye     0.00000000      6.20000000      0.00000000     40.00000000
pair_coeff 19 28 lj/cut/coul/debye     0.00000000      6.20000000      0.00000000     40.00000000
pair_coeff 19 29 lj/cut/coul/debye     0.00000000      6.20000000      0.00000000     40.00000000
pair_coeff 19 30 lj/cut/coul/debye     0.00000000      6.20000000      0.00000000     40.00000000
pair_coeff 19 31 lj/cut/coul/debye     0.00000000      6.20000000      0.00000000     40.00000000
pair_coeff 19 32 lj/cut/coul/debye     0.00000000      6.20000000      0.00000000     40.00000000
pair_coeff 19 33 lj/cut/coul/debye     0.00000000      6.20000000      0.00000000     40.00000000
pair_coeff 19 34 lj/cut/coul/debye     0.00000000      6.20000000      0.00000000     40.00000000
pair_coeff 20 20 lj/cut/coul/debye     0.00000000      6.20000000      0.00000000     40.00000000
pair_coeff 20 21 lj/cut/coul/debye     0.00000000      6.20000000      0.00000000     40.00000000
pair_coeff 20 22 lj/cut/coul/debye     0.00000000      6.20000000      0.00000000     40.00000000
pair_coeff 20 23 lj/cut/coul/debye     0.00000000      6.20000000      0.00000000     40.00000000
pair_coeff 20 24 lj/cut/coul/debye     0.00000000      6.20000000      0.00000000     40.00000000
pair_coeff 20 25 lj/cut/coul/debye     0.00000000      6.20000000      0.00000000     40.00000000
pair_coeff 20 26 lj/cut/coul/debye     0.00000000      6.20000000      0.00000000     40.00000000
pair_coeff 20 27 lj/cut/coul/debye     0.00000000      6.20000000      0.00000000     40.00000000
pair_coeff 20 28 lj/cut/coul/debye     0.00000000      6.20000000      0.00000000     40.00000000
pair_coeff 20 29 lj/cut/coul/debye     0.00000000      6.20000000      0.00000000     40.00000000
pair_coeff 20 30 lj/cut/coul/debye     0.00000000      6.20000000      0.00000000     40.00000000
pair_coeff 20 31 lj/cut/coul/debye     0.00000000      6.20000000      0.00000000     40.00000000
pair_coeff 20 32 lj/cut/coul/debye     0.00000000      6.20000000      0.00000000     40.00000000
pair_coeff 20 33 lj/cut/coul/debye     0.00000000      6.20000000      0.00000000     40.00000000
pair_coeff 20 34 lj/cut/coul/debye     0.00000000      6.20000000      0.00000000     40.00000000
pair_coeff 21 21 lj/cut/coul/debye     0.00000000      6.20000000      0.00000000     40.00000000
pair_coeff 21 22 lj/cut/coul/debye     0.00000000      6.20000000      0.00000000     40.00000000
pair_coeff 21 23 lj/cut/coul/debye     0.00000000      6.20000000      0.00000000     40.00000000
pair_coeff 21 24 lj/cut/coul/debye     0.00000000      6.20000000      0.00000000     40.00000000
pair_coeff 21 25 lj/cut/coul/debye     0.00000000      6.20000000      0.00000000     40.00000000
pair_coeff 21 26 lj/cut/coul/debye     0.00000000      6.20000000      0.00000000     40.00000000
pair_coeff 21 27 lj/cut/coul/debye     0.00000000      6.20000000      0.00000000     40.00000000
pair_coeff 21 28 lj/cut/coul/debye     0.00000000      6.20000000      0.00000000     40.00000000
pair_coeff 21 29 lj/cut/coul/debye     0.00000000      6.20000000      0.00000000     40.00000000
pair_coeff 21 30 lj/cut/coul/debye     0.00000000      6.20000000      0.00000000     40.00000000
pair_coeff 21 31 lj/cut/coul/debye     0.00000000      6.20000000      0.00000000     40.00000000
pair_coeff 21 32 lj/cut/coul/debye     0.00000000      6.20000000      0.00000000     40.00000000
pair_coeff 21 33 lj/cut/coul/debye     0.00000000      6.20000000      0.00000000     40.00000000
pair_coeff 21 34 lj/cut/coul/debye     0.00000000      6.20000000      0.00000000     40.00000000
pair_coeff 22 22 lj/cut/coul/debye     0.00000000      6.20000000      0.00000000     40.00000000
pair_coeff 22 23 lj/cut/coul/debye     0.00000000      6.20000000      0.00000000     40.00000000
pair_coeff 22 24 lj/cut/coul/debye     0.00000000      6.20000000      0.00000000     40.00000000
pair_coeff 22 25 lj/cut/coul/debye     0.00000000      6.20000000      0.00000000     40.00000000
pair_coeff 22 26 lj/cut/coul/debye     0.00000000      6.20000000      0.00000000     40.00000000
pair_coeff 22 27 lj/cut/coul/debye     0.00000000      6.20000000      0.00000000     40.00000000
pair_coeff 22 28 lj/cut/coul/debye     0.00000000      6.20000000      0.00000000     40.00000000
pair_coeff 22 29 lj/cut/coul/debye     0.00000000      6.20000000      0.00000000     40.00000000
pair_coeff 22 30 lj/cut/coul/debye     0.00000000      6.20000000      0.00000000     40.00000000
pair_coeff 22 31 lj/cut/coul/debye     0.00000000      6.20000000      0.00000000     40.00000000
pair_coeff 22 32 lj/cut/coul/debye     0.00000000      6.20000000      0.00000000     40.00000000
pair_coeff 22 33 lj/cut/coul/debye     0.00000000      6.20000000      0.00000000     40.00000000
pair_coeff 22 34 lj/cut/coul/debye     0.00000000      6.20000000      0.00000000     40.00000000
pair_coeff 23 23 lj/cut/coul/debye     0.00000000      6.20000000      0.00000000     40.00000000
pair_coeff 23 24 lj/cut/coul/debye     0.00000000      6.20000000      0.00000000     40.00000000
pair_coeff 23 25 lj/cut/coul/debye     0.00000000      6.20000000      0.00000000     40.00000000
pair_coeff 23 26 lj/cut/coul/debye     0.00000000      6.20000000      0.00000000     40.00000000
pair_coeff 23 27 lj/cut/coul/debye     0.00000000      6.20000000      0.00000000     40.00000000
pair_coeff 23 28 lj/cut/coul/debye     0.00000000      6.20000000      0.00000000     40.00000000
pair_coeff 23 29 lj/cut/coul/debye     0.00000000      6.20000000      0.00000000     40.00000000
pair_coeff 23 30 lj/cut/coul/debye     0.00000000      6.20000000      0.00000000     40.00000000
pair_coeff 23 31 lj/cut/coul/debye     0.00000000      6.20000000      0.00000000     40.00000000
pair_coeff 23 32 lj/cut/coul/debye     0.00000000      6.20000000      0.00000000     40.00000000
pair_coeff 23 33 lj/cut/coul/debye     0.00000000      6.20000000      0.00000000     40.00000000
pair_coeff 23 34 lj/cut/coul/debye     0.00000000      6.20000000      0.00000000     40.00000000
pair_coeff 24 24 lj/cut/coul/debye     0.00000000      6.20000000      0.00000000     40.00000000
pair_coeff 24 25 lj/cut/coul/debye     0.00000000      6.20000000      0.00000000     40.00000000
pair_coeff 24 26 lj/cut/coul/debye     0.00000000      6.20000000      0.00000000     40.00000000
pair_coeff 24 27 lj/cut/coul/debye     0.00000000      6.20000000      0.00000000     40.00000000
pair_coeff 24 28 lj/cut/coul/debye     0.00000000      6.20000000      0.00000000     40.00000000
pair_coeff 24 29 lj/cut/coul/debye     0.00000000      6.20000000      0.00000000     40.00000000
pair_coeff 24 30 lj/cut/coul/debye     0.00000000      6.20000000      0.00000000     40.00000000
pair_coeff 24 31 lj/cut/coul/debye     0.00000000      6.20000000      0.00000000     40.00000000
pair_coeff 24 32 lj/cut/coul/debye     0.00000000      6.20000000      0.00000000     40.00000000
pair_coeff 24 33 lj/cut/coul/debye     0.00000000      6.20000000      0.00000000     40.00000000
pair_coeff 24 34 lj/cut/coul/debye     0.00000000      6.20000000      0.00000000     40.00000000
pair_coeff 25 25 lj/cut/coul/debye     0.00000000      6.20000000      0.00000000     40.00000000
pair_coeff 25 26 lj/cut/coul/debye     0.00000000      6.20000000      0.00000000     40.00000000
pair_coeff 25 27 lj/cut/coul/debye     0.00000000      6.20000000      0.00000000     40.00000000
pair_coeff 25 28 lj/cut/coul/debye     0.00000000      6.20000000      0.00000000     40.00000000
pair_coeff 25 29 lj/cut/coul/debye     0.00000000      6.20000000      0.00000000     40.00000000
pair_coeff 25 30 lj/cut/coul/debye     0.00000000      6.20000000      0.00000000     40.00000000
pair_coeff 25 31 lj/cut/coul/debye     0.00000000      6.20000000      0.00000000     40.00000000
pair_coeff 25 32 lj/cut/coul/debye     0.00000000      6.20000000      0.00000000     40.00000000
pair_coeff 25 33 lj/cut/coul/debye     0.00000000      6.20000000      0.00000000     40.00000000
pair_coeff 25 34 lj/cut/coul/debye     0.00000000      6.20000000      0.00000000     40.00000000
pair_coeff 26 26 lj/cut/coul/debye     0.00000000      6.20000000      0.00000000     40.00000000
pair_coeff 26 27 lj/cut/coul/debye     0.00000000      6.20000000      0.00000000     40.00000000
pair_coeff 26 28 lj/cut/coul/debye     0.00000000      6.20000000      0.00000000     40.00000000
pair_coeff 26 29 lj/cut/coul/debye     0.00000000      6.20000000      0.00000000     40.00000000
pair_coeff 26 30 lj/cut/coul/debye     0.00000000      6.20000000      0.00000000     40.00000000
pair_coeff 26 31 lj/cut/coul/debye     0.00000000      6.20000000      0.00000000     40.00000000
pair_coeff 26 32 lj/cut/coul/debye     0.00000000      6.20000000      0.00000000     40.00000000
pair_coeff 26 33 lj/cut/coul/debye     0.00000000      6.20000000      0.00000000     40.00000000
pair_coeff 26 34 lj/cut/coul/debye     0.00000000      6.20000000      0.00000000     40.00000000
pair_coeff 27 27 lj/cut/coul/debye     0.00000000      6.20000000      0.00000000     40.00000000
pair_coeff 27 28 lj/cut/coul/debye     0.00000000      6.20000000      0.00000000     40.00000000
pair_coeff 27 29 lj/cut/coul/debye     0.00000000      6.20000000      0.00000000     40.00000000
pair_coeff 27 30 lj/cut/coul/debye     0.00000000      6.20000000      0.00000000     40.00000000
pair_coeff 27 31 lj/cut/coul/debye     0.00000000      6.20000000      0.00000000     40.00000000
pair_coeff 27 32 lj/cut/coul/debye     0.00000000      6.20000000      0.00000000     40.00000000
pair_coeff 27 33 lj/cut/coul/debye     0.00000000      6.20000000      0.00000000     40.00000000
pair_coeff 27 34 lj/cut/coul/debye     0.00000000      6.20000000      0.00000000     40.00000000
pair_coeff 28 28 lj/cut/coul/debye     0.00000000      6.20000000      0.00000000     40.00000000
pair_coeff 28 29 lj/cut/coul/debye     0.00000000      6.20000000      0.00000000     40.00000000
pair_coeff 28 30 lj/cut/coul/debye     0.00000000      6.20000000      0.00000000     40.00000000
pair_coeff 28 31 lj/cut/coul/debye     0.00000000      6.20000000      0.00000000     40.00000000
pair_coeff 28 32 lj/cut/coul/debye     0.00000000      6.20000000      0.00000000     40.00000000
pair_coeff 28 33 lj/cut/coul/debye     0.00000000      6.20000000      0.00000000     40.00000000
pair_coeff 28 34 lj/cut/coul/debye     0.00000000      6.20000000      0.00000000     40.00000000
pair_coeff 29 29 lj/cut/coul/debye     0.00000000      6.20000000      0.00000000     40.00000000
pair_coeff 29 30 lj/cut/coul/debye     0.00000000      6.20000000      0.00000000     40.00000000
pair_coeff 29 31 lj/cut/coul/debye     0.00000000      6.20000000      0.00000000     40.00000000
pair_coeff 29 32 lj/cut/coul/debye     0.00000000      6.20000000      0.00000000     40.00000000
pair_coeff 29 33 lj/cut/coul/debye     0.00000000      6.20000000      0.00000000     40.00000000
pair_coeff 29 34 lj/cut/coul/debye     0.00000000      6.20000000      0.00000000     40.00000000
pair_coeff 30 30 lj/cut/coul/debye     0.00000000      6.20000000      0.00000000     40.00000000
pair_coeff 30 31 lj/cut/coul/debye     0.00000000      6.20000000      0.00000000     40.00000000
pair_coeff 30 32 lj/cut/coul/debye     0.00000000      6.20000000      0.00000000     40.00000000
pair_coeff 30 33 lj/cut/coul/debye     0.00000000      6.20000000      0.00000000     40.00000000
pair_coeff 30 34 lj/cut/coul/debye     0.00000000      6.20000000      0.00000000     40.00000000
pair_coeff 31 31 lj/cut/coul/debye     0.00000000      6.20000000      0.00000000     40.00000000
pair_coeff 31 32 lj/cut/coul/debye     0.00000000      6.20000000      0.00000000     40.00000000
pair_coeff 31 33 lj/cut/coul/debye     0.00000000      6.20000000      0.00000000     40.00000000
pair_coeff 31 34 lj/cut/coul/debye     0.00000000      6.20000000      0.00000000     40.00000000
pair_coeff 32 32 lj/cut/coul/debye     0.00000000      6.20000000      0.00000000     40.00000000
pair_coeff 32 33 lj/cut/coul/debye     0.00000000      6.20000000      0.00000000     40.00000000
pair_coeff 32 34 lj/cut/coul/debye     0.00000000      6.20000000      0.00000000     40.00000000
pair_coeff 33 33 lj/cut/coul/debye     0.00000000      6.20000000      0.00000000     40.00000000
pair_coeff 33 34 lj/cut/coul/debye     0.00000000      6.20000000      0.00000000     40.00000000
pair_coeff 34 34 lj/cut/coul/debye     0.00000000      6.20000000      0.00000000     40.00000000
