
# dna pair-wise interaction
pair_coeff      1      1 3spn2      0.23900600      4.50000000
pair_coeff      1      2 3spn2      0.23900600      5.35000000
pair_coeff      1      3 3spn2      0.23900600      4.95000000
pair_coeff      1      4 3spn2      0.23900600      5.80000000
pair_coeff      1      5 3spn2      0.23900600      4.70000000
pair_coeff      1      6 3spn2      0.23900600      5.45000000
pair_coeff      1      7 3spn2      0.23900600      4.95000000
pair_coeff      1      8 3spn2      0.23900600      5.80000000
pair_coeff      1      9 3spn2      0.23900600      4.70000000
pair_coeff      1     10 3spn2      0.23900600      5.45000000
pair_coeff      1     11 3spn2      0.23900600      4.95000000
pair_coeff      1     12 3spn2      0.23900600      5.80000000
pair_coeff      1     13 3spn2      0.23900600      4.70000000
pair_coeff      1     14 3spn2      0.23900600      5.45000000
pair_coeff      2      2 3spn2      0.23900600      6.20000000
pair_coeff      2      3 3spn2      0.23900600      5.80000000
pair_coeff      2      4 3spn2      0.23900600      6.65000000
pair_coeff      2      5 3spn2      0.23900600      5.55000000
pair_coeff      2      6 3spn2      0.23900600      6.30000000
pair_coeff      2      7 3spn2      0.23900600      5.80000000
pair_coeff      2      8 3spn2      0.23900600      6.65000000
pair_coeff      2      9 3spn2      0.23900600      5.55000000
pair_coeff      2     10 3spn2      0.23900600      6.30000000
pair_coeff      2     11 3spn2      0.23900600      5.80000000
pair_coeff      2     12 3spn2      0.23900600      6.65000000
pair_coeff      2     13 3spn2      0.23900600      5.55000000
pair_coeff      2     14 3spn2      0.23900600      6.30000000
pair_coeff      3      3 3spn2      0.23900600      5.40000000
pair_coeff      3      4 3spn2      0.23900600      6.25000000
pair_coeff      3      5 3spn2      0.23900600      5.15000000
pair_coeff      3      6 3spn2      0.23900600      5.90000000
pair_coeff      3      7 3spn2      0.23900600      5.40000000
pair_coeff      3      8 3spn2      0.23900600      6.25000000
pair_coeff      3      9 3spn2      0.23900600      5.15000000
pair_coeff      3     10 3spn2      0.23900600      5.90000000
pair_coeff      3     11 3spn2      0.23900600      5.40000000
pair_coeff      3     12 3spn2      0.23900600      6.25000000
pair_coeff      3     13 3spn2      0.23900600      5.15000000
pair_coeff      3     14 3spn2      0.23900600      5.90000000
pair_coeff      4      4 3spn2      0.23900600      7.10000000
pair_coeff      4      5 3spn2      0.23900600      6.00000000
pair_coeff      4      6 3spn2      0.23900600      6.75000000
pair_coeff      4      7 3spn2      0.23900600      6.25000000
pair_coeff      4      8 3spn2      0.23900600      7.10000000
pair_coeff      4      9 3spn2      0.23900600      6.00000000
pair_coeff      4     10 3spn2      0.23900600      6.75000000
pair_coeff      4     11 3spn2      0.23900600      6.25000000
pair_coeff      4     12 3spn2      0.23900600      7.10000000
pair_coeff      4     13 3spn2      0.23900600      6.00000000
pair_coeff      4     14 3spn2      0.23900600      6.75000000
pair_coeff      5      5 3spn2      0.23900600      4.90000000
pair_coeff      5      6 3spn2      0.23900600      5.65000000
pair_coeff      5      7 3spn2      0.23900600      5.15000000
pair_coeff      5      8 3spn2      0.23900600      6.00000000
pair_coeff      5      9 3spn2      0.23900600      4.90000000
pair_coeff      5     10 3spn2      0.23900600      5.65000000
pair_coeff      5     11 3spn2      0.23900600      5.15000000
pair_coeff      5     12 3spn2      0.23900600      6.00000000
pair_coeff      5     13 3spn2      0.23900600      4.90000000
pair_coeff      5     14 3spn2      0.23900600      5.65000000
pair_coeff      6      6 3spn2      0.23900600      6.40000000
pair_coeff      6      7 3spn2      0.23900600      5.90000000
pair_coeff      6      8 3spn2      0.23900600      6.75000000
pair_coeff      6      9 3spn2      0.23900600      5.65000000
pair_coeff      6     10 3spn2      0.23900600      6.40000000
pair_coeff      6     11 3spn2      0.23900600      5.90000000
pair_coeff      6     12 3spn2      0.23900600      6.75000000
pair_coeff      6     13 3spn2      0.23900600      5.65000000
pair_coeff      6     14 3spn2      0.23900600      6.40000000
pair_coeff      7      7 3spn2      0.23900600      5.40000000
pair_coeff      7      8 3spn2      0.23900600      6.25000000
pair_coeff      7      9 3spn2      0.23900600      5.15000000
pair_coeff      7     10 3spn2      0.23900600      5.90000000
pair_coeff      7     11 3spn2      0.23900600      5.40000000
pair_coeff      7     12 3spn2      0.23900600      6.25000000
pair_coeff      7     13 3spn2      0.23900600      5.15000000
pair_coeff      7     14 3spn2      0.23900600      5.90000000
pair_coeff      8      8 3spn2      0.23900600      7.10000000
pair_coeff      8      9 3spn2      0.23900600      6.00000000
pair_coeff      8     10 3spn2      0.23900600      6.75000000
pair_coeff      8     11 3spn2      0.23900600      6.25000000
pair_coeff      8     12 3spn2      0.23900600      7.10000000
pair_coeff      8     13 3spn2      0.23900600      6.00000000
pair_coeff      8     14 3spn2      0.23900600      6.75000000
pair_coeff      9      9 3spn2      0.23900600      4.90000000
pair_coeff      9     10 3spn2      0.23900600      5.65000000
pair_coeff      9     11 3spn2      0.23900600      5.15000000
pair_coeff      9     12 3spn2      0.23900600      6.00000000
pair_coeff      9     13 3spn2      0.23900600      4.90000000
pair_coeff      9     14 3spn2      0.23900600      5.65000000
pair_coeff     10     10 3spn2      0.23900600      6.40000000
pair_coeff     10     11 3spn2      0.23900600      5.90000000
pair_coeff     10     12 3spn2      0.23900600      6.75000000
pair_coeff     10     13 3spn2      0.23900600      5.65000000
pair_coeff     10     14 3spn2      0.23900600      6.40000000
pair_coeff     11     11 3spn2      0.23900600      5.40000000
pair_coeff     11     12 3spn2      0.23900600      6.25000000
pair_coeff     11     13 3spn2      0.23900600      5.15000000
pair_coeff     11     14 3spn2      0.23900600      5.90000000
pair_coeff     12     12 3spn2      0.23900600      7.10000000
pair_coeff     12     13 3spn2      0.23900600      6.00000000
pair_coeff     12     14 3spn2      0.23900600      6.75000000
pair_coeff     13     13 3spn2      0.23900600      4.90000000
pair_coeff     13     14 3spn2      0.23900600      5.65000000
pair_coeff     14     14 3spn2      0.23900600      6.40000000

# protein dna pair-wise interaction
pair_coeff      1     15 lj/cut/coul/debye      0.02987572      5.70000000     14.25000000     40.00000000
pair_coeff      1     16 lj/cut/coul/debye      0.02987572      5.70000000     14.25000000     40.00000000
pair_coeff      1     17 lj/cut/coul/debye      0.02987572      5.70000000     14.25000000     40.00000000
pair_coeff      1     18 lj/cut/coul/debye      0.02987572      5.70000000     14.25000000     40.00000000
pair_coeff      1     19 lj/cut/coul/debye      0.02987572      5.70000000     14.25000000     40.00000000
pair_coeff      1     20 lj/cut/coul/debye      0.02987572      5.70000000     14.25000000     40.00000000
pair_coeff      1     21 lj/cut/coul/debye      0.02987572      5.70000000     14.25000000     40.00000000
pair_coeff      1     22 lj/cut/coul/debye      0.02987572      5.70000000     14.25000000     40.00000000
pair_coeff      1     23 lj/cut/coul/debye      0.02987572      5.70000000     14.25000000     40.00000000
pair_coeff      1     24 lj/cut/coul/debye      0.02987572      5.70000000     14.25000000     40.00000000
pair_coeff      1     25 lj/cut/coul/debye      0.02987572      5.70000000     14.25000000     40.00000000
pair_coeff      1     26 lj/cut/coul/debye      0.02987572      5.70000000     14.25000000     40.00000000
pair_coeff      1     27 lj/cut/coul/debye      0.02987572      5.70000000     14.25000000     40.00000000
pair_coeff      1     28 lj/cut/coul/debye      0.02987572      5.70000000     14.25000000     40.00000000
pair_coeff      1     29 lj/cut/coul/debye      0.02987572      5.70000000     14.25000000     40.00000000
pair_coeff      1     30 lj/cut/coul/debye      0.02987572      5.70000000     14.25000000     40.00000000
pair_coeff      1     31 lj/cut/coul/debye      0.02987572      5.70000000     14.25000000     40.00000000
pair_coeff      1     32 lj/cut/coul/debye      0.02987572      5.70000000     14.25000000     40.00000000
pair_coeff      1     33 lj/cut/coul/debye      0.02987572      5.70000000     14.25000000     40.00000000
pair_coeff      1     34 lj/cut/coul/debye      0.02987572      5.70000000     14.25000000     40.00000000
pair_coeff      2     15 lj/cut/coul/debye      0.02987572      5.70000000     14.25000000     40.00000000
pair_coeff      2     16 lj/cut/coul/debye      0.02987572      5.70000000     14.25000000     40.00000000
pair_coeff      2     17 lj/cut/coul/debye      0.02987572      5.70000000     14.25000000     40.00000000
pair_coeff      2     18 lj/cut/coul/debye      0.02987572      5.70000000     14.25000000     40.00000000
pair_coeff      2     19 lj/cut/coul/debye      0.02987572      5.70000000     14.25000000     40.00000000
pair_coeff      2     20 lj/cut/coul/debye      0.02987572      5.70000000     14.25000000     40.00000000
pair_coeff      2     21 lj/cut/coul/debye      0.02987572      5.70000000     14.25000000     40.00000000
pair_coeff      2     22 lj/cut/coul/debye      0.02987572      5.70000000     14.25000000     40.00000000
pair_coeff      2     23 lj/cut/coul/debye      0.02987572      5.70000000     14.25000000     40.00000000
pair_coeff      2     24 lj/cut/coul/debye      0.02987572      5.70000000     14.25000000     40.00000000
pair_coeff      2     25 lj/cut/coul/debye      0.02987572      5.70000000     14.25000000     40.00000000
pair_coeff      2     26 lj/cut/coul/debye      0.02987572      5.70000000     14.25000000     40.00000000
pair_coeff      2     27 lj/cut/coul/debye      0.02987572      5.70000000     14.25000000     40.00000000
pair_coeff      2     28 lj/cut/coul/debye      0.02987572      5.70000000     14.25000000     40.00000000
pair_coeff      2     29 lj/cut/coul/debye      0.02987572      5.70000000     14.25000000     40.00000000
pair_coeff      2     30 lj/cut/coul/debye      0.02987572      5.70000000     14.25000000     40.00000000
pair_coeff      2     31 lj/cut/coul/debye      0.02987572      5.70000000     14.25000000     40.00000000
pair_coeff      2     32 lj/cut/coul/debye      0.02987572      5.70000000     14.25000000     40.00000000
pair_coeff      2     33 lj/cut/coul/debye      0.02987572      5.70000000     14.25000000     40.00000000
pair_coeff      2     34 lj/cut/coul/debye      0.02987572      5.70000000     14.25000000     40.00000000
pair_coeff      3     15 lj/cut/coul/debye      0.02987572      5.70000000     14.25000000     40.00000000
pair_coeff      3     16 lj/cut/coul/debye      0.02987572      5.70000000     14.25000000     40.00000000
pair_coeff      3     17 lj/cut/coul/debye      0.02987572      5.70000000     14.25000000     40.00000000
pair_coeff      3     18 lj/cut/coul/debye      0.02987572      5.70000000     14.25000000     40.00000000
pair_coeff      3     19 lj/cut/coul/debye      0.02987572      5.70000000     14.25000000     40.00000000
pair_coeff      3     20 lj/cut/coul/debye      0.02987572      5.70000000     14.25000000     40.00000000
pair_coeff      3     21 lj/cut/coul/debye      0.02987572      5.70000000     14.25000000     40.00000000
pair_coeff      3     22 lj/cut/coul/debye      0.02987572      5.70000000     14.25000000     40.00000000
pair_coeff      3     23 lj/cut/coul/debye      0.02987572      5.70000000     14.25000000     40.00000000
pair_coeff      3     24 lj/cut/coul/debye      0.02987572      5.70000000     14.25000000     40.00000000
pair_coeff      3     25 lj/cut/coul/debye      0.02987572      5.70000000     14.25000000     40.00000000
pair_coeff      3     26 lj/cut/coul/debye      0.02987572      5.70000000     14.25000000     40.00000000
pair_coeff      3     27 lj/cut/coul/debye      0.02987572      5.70000000     14.25000000     40.00000000
pair_coeff      3     28 lj/cut/coul/debye      0.02987572      5.70000000     14.25000000     40.00000000
pair_coeff      3     29 lj/cut/coul/debye      0.02987572      5.70000000     14.25000000     40.00000000
pair_coeff      3     30 lj/cut/coul/debye      0.02987572      5.70000000     14.25000000     40.00000000
pair_coeff      3     31 lj/cut/coul/debye      0.02987572      5.70000000     14.25000000     40.00000000
pair_coeff      3     32 lj/cut/coul/debye      0.02987572      5.70000000     14.25000000     40.00000000
pair_coeff      3     33 lj/cut/coul/debye      0.02987572      5.70000000     14.25000000     40.00000000
pair_coeff      3     34 lj/cut/coul/debye      0.02987572      5.70000000     14.25000000     40.00000000
pair_coeff      4     15 lj/cut/coul/debye      0.02987572      5.70000000     14.25000000     40.00000000
pair_coeff      4     16 lj/cut/coul/debye      0.02987572      5.70000000     14.25000000     40.00000000
pair_coeff      4     17 lj/cut/coul/debye      0.02987572      5.70000000     14.25000000     40.00000000
pair_coeff      4     18 lj/cut/coul/debye      0.02987572      5.70000000     14.25000000     40.00000000
pair_coeff      4     19 lj/cut/coul/debye      0.02987572      5.70000000     14.25000000     40.00000000
pair_coeff      4     20 lj/cut/coul/debye      0.02987572      5.70000000     14.25000000     40.00000000
pair_coeff      4     21 lj/cut/coul/debye      0.02987572      5.70000000     14.25000000     40.00000000
pair_coeff      4     22 lj/cut/coul/debye      0.02987572      5.70000000     14.25000000     40.00000000
pair_coeff      4     23 lj/cut/coul/debye      0.02987572      5.70000000     14.25000000     40.00000000
pair_coeff      4     24 lj/cut/coul/debye      0.02987572      5.70000000     14.25000000     40.00000000
pair_coeff      4     25 lj/cut/coul/debye      0.02987572      5.70000000     14.25000000     40.00000000
pair_coeff      4     26 lj/cut/coul/debye      0.02987572      5.70000000     14.25000000     40.00000000
pair_coeff      4     27 lj/cut/coul/debye      0.02987572      5.70000000     14.25000000     40.00000000
pair_coeff      4     28 lj/cut/coul/debye      0.02987572      5.70000000     14.25000000     40.00000000
pair_coeff      4     29 lj/cut/coul/debye      0.02987572      5.70000000     14.25000000     40.00000000
pair_coeff      4     30 lj/cut/coul/debye      0.02987572      5.70000000     14.25000000     40.00000000
pair_coeff      4     31 lj/cut/coul/debye      0.02987572      5.70000000     14.25000000     40.00000000
pair_coeff      4     32 lj/cut/coul/debye      0.02987572      5.70000000     14.25000000     40.00000000
pair_coeff      4     33 lj/cut/coul/debye      0.02987572      5.70000000     14.25000000     40.00000000
pair_coeff      4     34 lj/cut/coul/debye      0.02987572      5.70000000     14.25000000     40.00000000
pair_coeff      5     15 lj/cut/coul/debye      0.02987572      5.70000000     14.25000000     40.00000000
pair_coeff      5     16 lj/cut/coul/debye      0.02987572      5.70000000     14.25000000     40.00000000
pair_coeff      5     17 lj/cut/coul/debye      0.02987572      5.70000000     14.25000000     40.00000000
pair_coeff      5     18 lj/cut/coul/debye      0.02987572      5.70000000     14.25000000     40.00000000
pair_coeff      5     19 lj/cut/coul/debye      0.02987572      5.70000000     14.25000000     40.00000000
pair_coeff      5     20 lj/cut/coul/debye      0.02987572      5.70000000     14.25000000     40.00000000
pair_coeff      5     21 lj/cut/coul/debye      0.02987572      5.70000000     14.25000000     40.00000000
pair_coeff      5     22 lj/cut/coul/debye      0.02987572      5.70000000     14.25000000     40.00000000
pair_coeff      5     23 lj/cut/coul/debye      0.02987572      5.70000000     14.25000000     40.00000000
pair_coeff      5     24 lj/cut/coul/debye      0.02987572      5.70000000     14.25000000     40.00000000
pair_coeff      5     25 lj/cut/coul/debye      0.02987572      5.70000000     14.25000000     40.00000000
pair_coeff      5     26 lj/cut/coul/debye      0.02987572      5.70000000     14.25000000     40.00000000
pair_coeff      5     27 lj/cut/coul/debye      0.02987572      5.70000000     14.25000000     40.00000000
pair_coeff      5     28 lj/cut/coul/debye      0.02987572      5.70000000     14.25000000     40.00000000
pair_coeff      5     29 lj/cut/coul/debye      0.02987572      5.70000000     14.25000000     40.00000000
pair_coeff      5     30 lj/cut/coul/debye      0.02987572      5.70000000     14.25000000     40.00000000
pair_coeff      5     31 lj/cut/coul/debye      0.02987572      5.70000000     14.25000000     40.00000000
pair_coeff      5     32 lj/cut/coul/debye      0.02987572      5.70000000     14.25000000     40.00000000
pair_coeff      5     33 lj/cut/coul/debye      0.02987572      5.70000000     14.25000000     40.00000000
pair_coeff      5     34 lj/cut/coul/debye      0.02987572      5.70000000     14.25000000     40.00000000
pair_coeff      6     15 lj/cut/coul/debye      0.02987572      5.70000000     14.25000000     40.00000000
pair_coeff      6     16 lj/cut/coul/debye      0.02987572      5.70000000     14.25000000     40.00000000
pair_coeff      6     17 lj/cut/coul/debye      0.02987572      5.70000000     14.25000000     40.00000000
pair_coeff      6     18 lj/cut/coul/debye      0.02987572      5.70000000     14.25000000     40.00000000
pair_coeff      6     19 lj/cut/coul/debye      0.02987572      5.70000000     14.25000000     40.00000000
pair_coeff      6     20 lj/cut/coul/debye      0.02987572      5.70000000     14.25000000     40.00000000
pair_coeff      6     21 lj/cut/coul/debye      0.02987572      5.70000000     14.25000000     40.00000000
pair_coeff      6     22 lj/cut/coul/debye      0.02987572      5.70000000     14.25000000     40.00000000
pair_coeff      6     23 lj/cut/coul/debye      0.02987572      5.70000000     14.25000000     40.00000000
pair_coeff      6     24 lj/cut/coul/debye      0.02987572      5.70000000     14.25000000     40.00000000
pair_coeff      6     25 lj/cut/coul/debye      0.02987572      5.70000000     14.25000000     40.00000000
pair_coeff      6     26 lj/cut/coul/debye      0.02987572      5.70000000     14.25000000     40.00000000
pair_coeff      6     27 lj/cut/coul/debye      0.02987572      5.70000000     14.25000000     40.00000000
pair_coeff      6     28 lj/cut/coul/debye      0.02987572      5.70000000     14.25000000     40.00000000
pair_coeff      6     29 lj/cut/coul/debye      0.02987572      5.70000000     14.25000000     40.00000000
pair_coeff      6     30 lj/cut/coul/debye      0.02987572      5.70000000     14.25000000     40.00000000
pair_coeff      6     31 lj/cut/coul/debye      0.02987572      5.70000000     14.25000000     40.00000000
pair_coeff      6     32 lj/cut/coul/debye      0.02987572      5.70000000     14.25000000     40.00000000
pair_coeff      6     33 lj/cut/coul/debye      0.02987572      5.70000000     14.25000000     40.00000000
pair_coeff      6     34 lj/cut/coul/debye      0.02987572      5.70000000     14.25000000     40.00000000
pair_coeff      7     15 lj/cut/coul/debye      0.02987572      5.70000000     14.25000000     40.00000000
pair_coeff      7     16 lj/cut/coul/debye      0.02987572      5.70000000     14.25000000     40.00000000
pair_coeff      7     17 lj/cut/coul/debye      0.02987572      5.70000000     14.25000000     40.00000000
pair_coeff      7     18 lj/cut/coul/debye      0.02987572      5.70000000     14.25000000     40.00000000
pair_coeff      7     19 lj/cut/coul/debye      0.02987572      5.70000000     14.25000000     40.00000000
pair_coeff      7     20 lj/cut/coul/debye      0.02987572      5.70000000     14.25000000     40.00000000
pair_coeff      7     21 lj/cut/coul/debye      0.02987572      5.70000000     14.25000000     40.00000000
pair_coeff      7     22 lj/cut/coul/debye      0.02987572      5.70000000     14.25000000     40.00000000
pair_coeff      7     23 lj/cut/coul/debye      0.02987572      5.70000000     14.25000000     40.00000000
pair_coeff      7     24 lj/cut/coul/debye      0.02987572      5.70000000     14.25000000     40.00000000
pair_coeff      7     25 lj/cut/coul/debye      0.02987572      5.70000000     14.25000000     40.00000000
pair_coeff      7     26 lj/cut/coul/debye      0.02987572      5.70000000     14.25000000     40.00000000
pair_coeff      7     27 lj/cut/coul/debye      0.02987572      5.70000000     14.25000000     40.00000000
pair_coeff      7     28 lj/cut/coul/debye      0.02987572      5.70000000     14.25000000     40.00000000
pair_coeff      7     29 lj/cut/coul/debye      0.02987572      5.70000000     14.25000000     40.00000000
pair_coeff      7     30 lj/cut/coul/debye      0.02987572      5.70000000     14.25000000     40.00000000
pair_coeff      7     31 lj/cut/coul/debye      0.02987572      5.70000000     14.25000000     40.00000000
pair_coeff      7     32 lj/cut/coul/debye      0.02987572      5.70000000     14.25000000     40.00000000
pair_coeff      7     33 lj/cut/coul/debye      0.02987572      5.70000000     14.25000000     40.00000000
pair_coeff      7     34 lj/cut/coul/debye      0.02987572      5.70000000     14.25000000     40.00000000
pair_coeff      8     15 lj/cut/coul/debye      0.02987572      5.70000000     14.25000000     40.00000000
pair_coeff      8     16 lj/cut/coul/debye      0.02987572      5.70000000     14.25000000     40.00000000
pair_coeff      8     17 lj/cut/coul/debye      0.02987572      5.70000000     14.25000000     40.00000000
pair_coeff      8     18 lj/cut/coul/debye      0.02987572      5.70000000     14.25000000     40.00000000
pair_coeff      8     19 lj/cut/coul/debye      0.02987572      5.70000000     14.25000000     40.00000000
pair_coeff      8     20 lj/cut/coul/debye      0.02987572      5.70000000     14.25000000     40.00000000
pair_coeff      8     21 lj/cut/coul/debye      0.02987572      5.70000000     14.25000000     40.00000000
pair_coeff      8     22 lj/cut/coul/debye      0.02987572      5.70000000     14.25000000     40.00000000
pair_coeff      8     23 lj/cut/coul/debye      0.02987572      5.70000000     14.25000000     40.00000000
pair_coeff      8     24 lj/cut/coul/debye      0.02987572      5.70000000     14.25000000     40.00000000
pair_coeff      8     25 lj/cut/coul/debye      0.02987572      5.70000000     14.25000000     40.00000000
pair_coeff      8     26 lj/cut/coul/debye      0.02987572      5.70000000     14.25000000     40.00000000
pair_coeff      8     27 lj/cut/coul/debye      0.02987572      5.70000000     14.25000000     40.00000000
pair_coeff      8     28 lj/cut/coul/debye      0.02987572      5.70000000     14.25000000     40.00000000
pair_coeff      8     29 lj/cut/coul/debye      0.02987572      5.70000000     14.25000000     40.00000000
pair_coeff      8     30 lj/cut/coul/debye      0.02987572      5.70000000     14.25000000     40.00000000
pair_coeff      8     31 lj/cut/coul/debye      0.02987572      5.70000000     14.25000000     40.00000000
pair_coeff      8     32 lj/cut/coul/debye      0.02987572      5.70000000     14.25000000     40.00000000
pair_coeff      8     33 lj/cut/coul/debye      0.02987572      5.70000000     14.25000000     40.00000000
pair_coeff      8     34 lj/cut/coul/debye      0.02987572      5.70000000     14.25000000     40.00000000
pair_coeff      9     15 lj/cut/coul/debye      0.02987572      5.70000000     14.25000000     40.00000000
pair_coeff      9     16 lj/cut/coul/debye      0.02987572      5.70000000     14.25000000     40.00000000
pair_coeff      9     17 lj/cut/coul/debye      0.02987572      5.70000000     14.25000000     40.00000000
pair_coeff      9     18 lj/cut/coul/debye      0.02987572      5.70000000     14.25000000     40.00000000
pair_coeff      9     19 lj/cut/coul/debye      0.02987572      5.70000000     14.25000000     40.00000000
pair_coeff      9     20 lj/cut/coul/debye      0.02987572      5.70000000     14.25000000     40.00000000
pair_coeff      9     21 lj/cut/coul/debye      0.02987572      5.70000000     14.25000000     40.00000000
pair_coeff      9     22 lj/cut/coul/debye      0.02987572      5.70000000     14.25000000     40.00000000
pair_coeff      9     23 lj/cut/coul/debye      0.02987572      5.70000000     14.25000000     40.00000000
pair_coeff      9     24 lj/cut/coul/debye      0.02987572      5.70000000     14.25000000     40.00000000
pair_coeff      9     25 lj/cut/coul/debye      0.02987572      5.70000000     14.25000000     40.00000000
pair_coeff      9     26 lj/cut/coul/debye      0.02987572      5.70000000     14.25000000     40.00000000
pair_coeff      9     27 lj/cut/coul/debye      0.02987572      5.70000000     14.25000000     40.00000000
pair_coeff      9     28 lj/cut/coul/debye      0.02987572      5.70000000     14.25000000     40.00000000
pair_coeff      9     29 lj/cut/coul/debye      0.02987572      5.70000000     14.25000000     40.00000000
pair_coeff      9     30 lj/cut/coul/debye      0.02987572      5.70000000     14.25000000     40.00000000
pair_coeff      9     31 lj/cut/coul/debye      0.02987572      5.70000000     14.25000000     40.00000000
pair_coeff      9     32 lj/cut/coul/debye      0.02987572      5.70000000     14.25000000     40.00000000
pair_coeff      9     33 lj/cut/coul/debye      0.02987572      5.70000000     14.25000000     40.00000000
pair_coeff      9     34 lj/cut/coul/debye      0.02987572      5.70000000     14.25000000     40.00000000
pair_coeff     10     15 lj/cut/coul/debye      0.02987572      5.70000000     14.25000000     40.00000000
pair_coeff     10     16 lj/cut/coul/debye      0.02987572      5.70000000     14.25000000     40.00000000
pair_coeff     10     17 lj/cut/coul/debye      0.02987572      5.70000000     14.25000000     40.00000000
pair_coeff     10     18 lj/cut/coul/debye      0.02987572      5.70000000     14.25000000     40.00000000
pair_coeff     10     19 lj/cut/coul/debye      0.02987572      5.70000000     14.25000000     40.00000000
pair_coeff     10     20 lj/cut/coul/debye      0.02987572      5.70000000     14.25000000     40.00000000
pair_coeff     10     21 lj/cut/coul/debye      0.02987572      5.70000000     14.25000000     40.00000000
pair_coeff     10     22 lj/cut/coul/debye      0.02987572      5.70000000     14.25000000     40.00000000
pair_coeff     10     23 lj/cut/coul/debye      0.02987572      5.70000000     14.25000000     40.00000000
pair_coeff     10     24 lj/cut/coul/debye      0.02987572      5.70000000     14.25000000     40.00000000
pair_coeff     10     25 lj/cut/coul/debye      0.02987572      5.70000000     14.25000000     40.00000000
pair_coeff     10     26 lj/cut/coul/debye      0.02987572      5.70000000     14.25000000     40.00000000
pair_coeff     10     27 lj/cut/coul/debye      0.02987572      5.70000000     14.25000000     40.00000000
pair_coeff     10     28 lj/cut/coul/debye      0.02987572      5.70000000     14.25000000     40.00000000
pair_coeff     10     29 lj/cut/coul/debye      0.02987572      5.70000000     14.25000000     40.00000000
pair_coeff     10     30 lj/cut/coul/debye      0.02987572      5.70000000     14.25000000     40.00000000
pair_coeff     10     31 lj/cut/coul/debye      0.02987572      5.70000000     14.25000000     40.00000000
pair_coeff     10     32 lj/cut/coul/debye      0.02987572      5.70000000     14.25000000     40.00000000
pair_coeff     10     33 lj/cut/coul/debye      0.02987572      5.70000000     14.25000000     40.00000000
pair_coeff     10     34 lj/cut/coul/debye      0.02987572      5.70000000     14.25000000     40.00000000
pair_coeff     11     15 lj/cut/coul/debye      0.02987572      5.70000000     14.25000000     40.00000000
pair_coeff     11     16 lj/cut/coul/debye      0.02987572      5.70000000     14.25000000     40.00000000
pair_coeff     11     17 lj/cut/coul/debye      0.02987572      5.70000000     14.25000000     40.00000000
pair_coeff     11     18 lj/cut/coul/debye      0.02987572      5.70000000     14.25000000     40.00000000
pair_coeff     11     19 lj/cut/coul/debye      0.02987572      5.70000000     14.25000000     40.00000000
pair_coeff     11     20 lj/cut/coul/debye      0.02987572      5.70000000     14.25000000     40.00000000
pair_coeff     11     21 lj/cut/coul/debye      0.02987572      5.70000000     14.25000000     40.00000000
pair_coeff     11     22 lj/cut/coul/debye      0.02987572      5.70000000     14.25000000     40.00000000
pair_coeff     11     23 lj/cut/coul/debye      0.02987572      5.70000000     14.25000000     40.00000000
pair_coeff     11     24 lj/cut/coul/debye      0.02987572      5.70000000     14.25000000     40.00000000
pair_coeff     11     25 lj/cut/coul/debye      0.02987572      5.70000000     14.25000000     40.00000000
pair_coeff     11     26 lj/cut/coul/debye      0.02987572      5.70000000     14.25000000     40.00000000
pair_coeff     11     27 lj/cut/coul/debye      0.02987572      5.70000000     14.25000000     40.00000000
pair_coeff     11     28 lj/cut/coul/debye      0.02987572      5.70000000     14.25000000     40.00000000
pair_coeff     11     29 lj/cut/coul/debye      0.02987572      5.70000000     14.25000000     40.00000000
pair_coeff     11     30 lj/cut/coul/debye      0.02987572      5.70000000     14.25000000     40.00000000
pair_coeff     11     31 lj/cut/coul/debye      0.02987572      5.70000000     14.25000000     40.00000000