# dna pair-wise interaction
pair_coeff      1      1 3spn2      0.23900600      4.50000000
pair_coeff      1      2 3spn2      0.23900600      5.35000000
pair_coeff      1      3 3spn2      0.23900600      4.95000000
pair_coeff      1      4 3spn2      0.23900600      5.80000000
pair_coeff      1      5 3spn2      0.23900600      4.70000000
pair_coeff      1      6 3spn2      0.23900600      5.45000000
pair_coeff      1      7 3spn2      0.23900600      4.95000000
pair_coeff      1      8 3spn2      0.23900600      5.80000000
pair_coeff      1      9 3spn2      0.23900600      4.70000000
pair_coeff      1     10 3spn2      0.23900600      5.45000000
pair_coeff      1     11 3spn2      0.23900600      4.95000000
pair_coeff      1     12 3spn2      0.23900600      5.80000000
pair_coeff      1     13 3spn2      0.23900600      4.70000000
pair_coeff      1     14 3spn2      0.23900600      5.45000000
pair_coeff      2      2 3spn2      0.23900600      6.20000000
pair_coeff      2      3 3spn2      0.23900600      5.80000000
pair_coeff      2      4 3spn2      0.23900600      6.65000000
pair_coeff      2      5 3spn2      0.23900600      5.55000000
pair_coeff      2      6 3spn2      0.23900600      6.30000000
pair_coeff      2      7 3spn2      0.23900600      5.80000000
pair_coeff      2      8 3spn2      0.23900600      6.65000000
pair_coeff      2      9 3spn2      0.23900600      5.55000000
pair_coeff      2     10 3spn2      0.23900600      6.30000000
pair_coeff      2     11 3spn2      0.23900600      5.80000000
pair_coeff      2     12 3spn2      0.23900600      6.65000000
pair_coeff      2     13 3spn2      0.23900600      5.55000000
pair_coeff      2     14 3spn2      0.23900600      6.30000000
pair_coeff      3      3 3spn2      0.23900600      5.40000000
pair_coeff      3      4 3spn2      0.23900600      6.25000000
pair_coeff      3      5 3spn2      0.23900600      5.15000000
pair_coeff      3      6 3spn2      0.23900600      5.90000000
pair_coeff      3      7 3spn2      0.23900600      5.40000000
pair_coeff      3      8 3spn2      0.23900600      6.25000000
pair_coeff      3      9 3spn2      0.23900600      5.15000000
pair_coeff      3     10 3spn2      0.23900600      5.90000000
pair_coeff      3     11 3spn2      0.23900600      5.40000000
pair_coeff      3     12 3spn2      0.23900600      6.25000000
pair_coeff      3     13 3spn2      0.23900600      5.15000000
pair_coeff      3     14 3spn2      0.23900600      5.90000000
pair_coeff      4      4 3spn2      0.23900600      7.10000000
pair_coeff      4      5 3spn2      0.23900600      6.00000000
pair_coeff      4      6 3spn2      0.23900600      6.75000000
pair_coeff      4      7 3spn2      0.23900600      6.25000000
pair_coeff      4      8 3spn2      0.23900600      7.10000000
pair_coeff      4      9 3spn2      0.23900600      6.00000000
pair_coeff      4     10 3spn2      0.23900600      6.75000000
pair_coeff      4     11 3spn2      0.23900600      6.25000000
pair_coeff      4     12 3spn2      0.23900600      7.10000000
pair_coeff      4     13 3spn2      0.23900600      6.00000000
pair_coeff      4     14 3spn2      0.23900600      6.75000000
pair_coeff      5      5 3spn2      0.23900600      4.90000000
pair_coeff      5      6 3spn2      0.23900600      5.65000000
pair_coeff      5      7 3spn2      0.23900600      5.15000000
pair_coeff      5      8 3spn2      0.23900600      6.00000000
pair_coeff      5      9 3spn2      0.23900600      4.90000000
pair_coeff      5     10 3spn2      0.23900600      5.65000000
pair_coeff      5     11 3spn2      0.23900600      5.15000000
pair_coeff      5     12 3spn2      0.23900600      6.00000000
pair_coeff      5     13 3spn2      0.23900600      4.90000000
pair_coeff      5     14 3spn2      0.23900600      5.65000000
pair_coeff      6      6 3spn2      0.23900600      6.40000000
pair_coeff      6      7 3spn2      0.23900600      5.90000000
pair_coeff      6      8 3spn2      0.23900600      6.75000000
pair_coeff      6      9 3spn2      0.23900600      5.65000000
pair_coeff      6     10 3spn2      0.23900600      6.40000000
pair_coeff      6     11 3spn2      0.23900600      5.90000000
pair_coeff      6     12 3spn2      0.23900600      6.75000000
pair_coeff      6     13 3spn2      0.23900600      5.65000000
pair_coeff      6     14 3spn2      0.23900600      6.40000000
pair_coeff      7      7 3spn2      0.23900600      5.40000000
pair_coeff      7      8 3spn2      0.23900600      6.25000000
pair_coeff      7      9 3spn2      0.23900600      5.15000000
pair_coeff      7     10 3spn2      0.23900600      5.90000000
pair_coeff      7     11 3spn2      0.23900600      5.40000000
pair_coeff      7     12 3spn2      0.23900600      6.25000000
pair_coeff      7     13 3spn2      0.23900600      5.15000000
pair_coeff      7     14 3spn2      0.23900600      5.90000000
pair_coeff      8      8 3spn2      0.23900600      7.10000000
pair_coeff      8      9 3spn2      0.23900600      6.00000000
pair_coeff      8     10 3spn2      0.23900600      6.75000000
pair_coeff      8     11 3spn2      0.23900600      6.25000000
pair_coeff      8     12 3spn2      0.23900600      7.10000000
pair_coeff      8     13 3spn2      0.23900600      6.00000000
pair_coeff      8     14 3spn2      0.23900600      6.75000000
pair_coeff      9      9 3spn2      0.23900600      4.90000000
pair_coeff      9     10 3spn2      0.23900600      5.65000000
pair_coeff      9     11 3spn2      0.23900600      5.15000000
pair_coeff      9     12 3spn2      0.23900600      6.00000000
pair_coeff      9     13 3spn2      0.23900600      4.90000000
pair_coeff      9     14 3spn2      0.23900600      5.65000000
pair_coeff     10     10 3spn2      0.23900600      6.40000000
pair_coeff     10     11 3spn2      0.23900600      5.90000000
pair_coeff     10     12 3spn2      0.23900600      6.75000000
pair_coeff     10     13 3spn2      0.23900600      5.65000000
pair_coeff     10     14 3spn2      0.23900600      6.40000000
pair_coeff     11     11 3spn2      0.23900600      5.40000000
pair_coeff     11     12 3spn2      0.23900600      6.25000000
pair_coeff     11     13 3spn2      0.23900600      5.15000000
pair_coeff     11     14 3spn2      0.23900600      5.90000000
pair_coeff     12     12 3spn2      0.23900600      7.10000000
pair_coeff     12     13 3spn2      0.23900600      6.00000000
pair_coeff     12     14 3spn2      0.23900600      6.75000000
pair_coeff     13     13 3spn2      0.23900600      4.90000000
pair_coeff     13     14 3spn2      0.23900600      5.65000000
pair_coeff     14     14 3spn2      0.23900600      6.40000000


############################ ion related potential, Na+: 35, Mg2+: 36, Cl-: 37 #####################################
# Specifying the ion parameters from Freeman et al. JCP, 135:165104, 2011.
variable myDielectric equal 78
dielectric ${myDielectric}

#Turnin off pair interactions from 3SPN2
pair_coeff 1 1 none
pair_coeff 1 35*37 none
pair_coeff 2*37 35*37 none

# Apply LJ attraction between ion sites
pair_coeff 1 1 lj/cut  0.18379 6.86 # P-Na+
pair_coeff 1 35 lj/cut  0.02510 4.14 # P-Na+
pair_coeff 1 36 lj/cut  0.11950 4.87 # P-Mg#+
pair_coeff 1 37 lj/cut  0.08121 5.5425 # P-Cl-
pair_coeff 35 35 lj/cut 0.01121 2.43 # Na+-Na+
pair_coeff 35 36 lj/cut 0.04971 2.37 # Na+-Mg2+
pair_coeff 35 37 lj/cut 0.08387 3.1352 # Na+-Cl-
pair_coeff 36 36 lj/cut 0.89460 1.412 # Mg2+-Mg2+
pair_coeff 36 37 lj/cut 0.49737 4.74 # Mg2+-Cl-
pair_coeff 37 37 lj/cut 0.03585 4.045 # Cl--Cl-

# Apply coul/long between all ions (solve using ewald sum)
pair_coeff 1 1 coul/long
pair_coeff 1 16 coul/long
pair_coeff 1 18 coul/long
pair_coeff 1 20 coul/long
pair_coeff 1 26 coul/long
pair_coeff 16 16 coul/long
pair_coeff 16 18 coul/long
pair_coeff 16 20 coul/long
pair_coeff 16 26 coul/long
pair_coeff 18 18 coul/long
pair_coeff 18 20 coul/long
pair_coeff 18 26 coul/long
pair_coeff 20 20 coul/long
pair_coeff 20 26 coul/long
pair_coeff 26 26 coul/long

pair_coeff 1 35*37 coul/long
pair_coeff 16 35*37 coul/long
pair_coeff 18 35*37 coul/long
pair_coeff 20 35*37 coul/long
pair_coeff 26 35*37 coul/long
pair_coeff 35*37 35*37 coul/long

kspace_style pppm 1.0e-4

# Apply distance-dependent dielectric and correction factor
pair_coeff 1 1 coul/diel ${myDielectric}  6.86 0.5
pair_coeff 1 35 coul/diel ${myDielectric} 3.44 1.25
pair_coeff 1 36 coul/diel ${myDielectric} 3.75 1.00
pair_coeff 1 37 coul/diel ${myDielectric}  4.2 0.5
pair_coeff 35 35 coul/diel ${myDielectric} 2.7 0.57
pair_coeff 35 36 coul/diel ${myDielectric} 2.37 0.5
pair_coeff 35 37 coul/diel ${myDielectric} 3.9 2.06
pair_coeff 36 36 coul/diel ${myDielectric} 1.412 0.5
pair_coeff 36 37 coul/diel ${myDielectric} 4.48 0.57
pair_coeff 37 37 coul/diel ${myDielectric} 4.2 0.56
# protein-ion electrostatic interactions
pair_coeff 16 35 coul/diel ${myDielectric} 3.44 1.25
pair_coeff 16 36 coul/diel ${myDielectric} 3.75 1.00
pair_coeff 16 37 coul/diel ${myDielectric}  4.2 0.5
pair_coeff 18 35 coul/diel ${myDielectric} 3.44 1.25
pair_coeff 18 36 coul/diel ${myDielectric} 3.75 1.00
pair_coeff 18 37 coul/diel ${myDielectric}  4.2 0.5
pair_coeff 20 35 coul/diel ${myDielectric} 3.44 1.25
pair_coeff 20 36 coul/diel ${myDielectric} 3.75 1.00
pair_coeff 20 37 coul/diel ${myDielectric}  4.2 0.5
pair_coeff 26 35 coul/diel ${myDielectric} 3.44 1.25
pair_coeff 26 36 coul/diel ${myDielectric} 3.75 1.00
pair_coeff 26 37 coul/diel ${myDielectric}  4.2 0.5


# Add hydration barriers 
# First set of barriers (H r sigma)
pair_coeff 1 35 gauss/cut 1 3.15488 4.1 0.57
pair_coeff 1 36 gauss/cut 1 1.29063 6.1 0.5
pair_coeff 1 37 gauss/cut 1 0.83652 6.7 1.5
pair_coeff 16 35 gauss/cut 1 3.15488 4.1 0.57
pair_coeff 16 36 gauss/cut 1 1.29063 6.1 0.5
pair_coeff 16 37 gauss/cut 1 0.83652 6.7 1.5
pair_coeff 18 35 gauss/cut 1 3.15488 4.1 0.57
pair_coeff 18 36 gauss/cut 1 1.29063 6.1 0.5
pair_coeff 18 37 gauss/cut 1 0.83652 6.7 1.5
pair_coeff 20 35 gauss/cut 1 3.15488 4.1 0.57
pair_coeff 20 36 gauss/cut 1 1.29063 6.1 0.5
pair_coeff 20 37 gauss/cut 1 0.83652 6.7 1.5
pair_coeff 26 35 gauss/cut 1 3.15488 4.1 0.57
pair_coeff 26 36 gauss/cut 1 1.29063 6.1 0.5
pair_coeff 26 37 gauss/cut 1 0.83652 6.7 1.5
pair_coeff 35 35 gauss/cut 1 0.17925 5.8 0.57
pair_coeff 35 37 gauss/cut 1 5.49713 3.3 0.57
pair_coeff 36 37 gauss/cut 1 1.09943 5.48 0.44
pair_coeff 37 37 gauss/cut 1 0.23901 6.2 0.5

# Second set of barriers
pair_coeff 1 35  gauss/cut 2 0.47801 6.5 0.4
pair_coeff 1 36 gauss/cut 2 0.97992 8.3 1.2

pair_coeff 18 35  gauss/cut 2 0.47801 6.5 0.4
pair_coeff 18 36 gauss/cut 2 0.97992 8.3 1.2
pair_coeff 20 35  gauss/cut 2 0.47801 6.5 0.4
pair_coeff 20 36 gauss/cut 2 0.97992 8.3 1.2

pair_coeff 16 37 gauss/cut 2 0.47801 5.6 0.4
pair_coeff 26 37 gauss/cut 2 0.47801 5.6 0.4

pair_coeff 35 37 gauss/cut 2 0.47801 5.6 0.4
pair_coeff 36 37 gauss/cut 2 0.05975  8.16 0.35

# Specifying the mixing rules for cross interactions between the pair styles (excluded volume) of DNA-ion atoms (except for P, whose interaction with ions has been defined before)
pair_coeff 1 2 lj/cut 0.239000 5.350000 6.005172
pair_coeff 1 3 lj/cut 0.239000 4.950000 5.556187
pair_coeff 1 4 lj/cut 0.239000 5.800000 6.510280
pair_coeff 1 5 lj/cut 0.239000 4.700000 5.275572
pair_coeff 1 6 lj/cut 0.239000 5.450000 6.117418
pair_coeff 1 7 lj/cut 0.239000 4.950000 5.556187
pair_coeff 1 8 lj/cut 0.239000 5.800000 6.510280
pair_coeff 1 9 lj/cut 0.239000 4.700000 5.275572
pair_coeff 1 10 lj/cut 0.239000 5.450000 6.117418
pair_coeff 1 11 lj/cut 0.239000 4.950000 5.556187
pair_coeff 1 12 lj/cut 0.239000 5.800000 6.510280
pair_coeff 1 13 lj/cut 0.239000 4.700000 5.275572
pair_coeff 1 14 lj/cut 0.239000 5.450000 6.117418
pair_coeff 2 35 lj/cut 0.239000 4.315000 4.843424
pair_coeff 3 35 lj/cut 0.239000 3.915000 4.394439
pair_coeff 4 35 lj/cut 0.239000 4.765000 5.348532
pair_coeff 5 35 lj/cut 0.239000 3.665000 4.113823
pair_coeff 6 35 lj/cut 0.239000 4.415000 4.955670
pair_coeff 7 35 lj/cut 0.239000 3.915000 4.394439
pair_coeff 8 35 lj/cut 0.239000 4.765000 5.348532
pair_coeff 9 35 lj/cut 0.239000 3.665000 4.113823
pair_coeff 10 35 lj/cut 0.239000 4.415000 4.955670
pair_coeff 11 35 lj/cut 0.239000 3.915000 4.394439
pair_coeff 12 35 lj/cut 0.239000 4.765000 5.348532
pair_coeff 13 35 lj/cut 0.239000 3.665000 4.113823
pair_coeff 14 35 lj/cut 0.239000 4.415000 4.955670
pair_coeff 2 36 lj/cut 0.239000 3.806000 4.272091
pair_coeff 3 36 lj/cut 0.239000 3.406000 3.823106
pair_coeff 4 36 lj/cut 0.239000 4.256000 4.777198
pair_coeff 5 36 lj/cut 0.239000 3.156000 3.542490
pair_coeff 6 36 lj/cut 0.239000 3.906000 4.384337
pair_coeff 7 36 lj/cut 0.239000 3.406000 3.823106
pair_coeff 8 36 lj/cut 0.239000 4.256000 4.777198
pair_coeff 9 36 lj/cut 0.239000 3.156000 3.542490
pair_coeff 10 36 lj/cut 0.239000 3.906000 4.384337
pair_coeff 11 36 lj/cut 0.239000 3.406000 3.823106
pair_coeff 12 36 lj/cut 0.239000 4.256000 4.777198
pair_coeff 13 36 lj/cut 0.239000 3.156000 3.542490
pair_coeff 14 36 lj/cut 0.239000 3.906000 4.384337
pair_coeff 2 37 lj/cut 0.239000 5.122500 5.749812
pair_coeff 3 37 lj/cut 0.239000 4.722500 5.300827
pair_coeff 4 37 lj/cut 0.239000 5.572500 6.254920
pair_coeff 5 37 lj/cut 0.239000 4.472500 5.020212
pair_coeff 6 37 lj/cut 0.239000 5.222500 5.862058
pair_coeff 7 37 lj/cut 0.239000 4.722500 5.300827
pair_coeff 8 37 lj/cut 0.239000 5.572500 6.254920
pair_coeff 9 37 lj/cut 0.239000 4.472500 5.020212
pair_coeff 10 37 lj/cut 0.239000 5.222500 5.862058
pair_coeff 11 37 lj/cut 0.239000 4.722500 5.300827
pair_coeff 12 37 lj/cut 0.239000 5.572500 6.254920
pair_coeff 13 37 lj/cut 0.239000 4.472500 5.020212
pair_coeff 14 37 lj/cut 0.239000 5.222500 5.862058


# excluded volume for protein-ion interactions
pair_coeff 15 35 lj/cut 0.239    4.065     4.5628
pair_coeff 16 35 lj/cut 0.239    4.065     4.5628
pair_coeff 17 35 lj/cut 0.239    4.065     4.5628
pair_coeff 18 35 lj/cut 0.239    4.065     4.5628
pair_coeff 19 35 lj/cut 0.239    4.065     4.5628
pair_coeff 20 35 lj/cut 0.239    4.065     4.5628
pair_coeff 21 35 lj/cut 0.239    4.065     4.5628
pair_coeff 22 35 lj/cut 0.239    4.065     4.5628
pair_coeff 23 35 lj/cut 0.239    4.065     4.5628
pair_coeff 24 35 lj/cut 0.239    4.065     4.5628
pair_coeff 25 35 lj/cut 0.239    4.065     4.5628
pair_coeff 26 35 lj/cut 0.239    4.065     4.5628
pair_coeff 27 35 lj/cut 0.239    4.065     4.5628
pair_coeff 28 35 lj/cut 0.239    4.065     4.5628
pair_coeff 29 35 lj/cut 0.239    4.065     4.5628
pair_coeff 30 35 lj/cut 0.239    4.065     4.5628
pair_coeff 31 35 lj/cut 0.239    4.065     4.5628
pair_coeff 32 35 lj/cut 0.239    4.065     4.5628
pair_coeff 33 35 lj/cut 0.239    4.065     4.5628
pair_coeff 34 35 lj/cut 0.239    4.065     4.5628
pair_coeff 15 36 lj/cut 0.239    3.556     3.9915
pair_coeff 16 36 lj/cut 0.239    3.556     3.9915
pair_coeff 17 36 lj/cut 0.239    3.556     3.9915
pair_coeff 18 36 lj/cut 0.239    3.556     3.9915
pair_coeff 19 36 lj/cut 0.239    3.556     3.9915
pair_coeff 20 36 lj/cut 0.239    3.556     3.9915
pair_coeff 21 36 lj/cut 0.239    3.556     3.9915
pair_coeff 22 36 lj/cut 0.239    3.556     3.9915
pair_coeff 23 36 lj/cut 0.239    3.556     3.9915
pair_coeff 24 36 lj/cut 0.239    3.556     3.9915
pair_coeff 25 36 lj/cut 0.239    3.556     3.9915
pair_coeff 26 36 lj/cut 0.239    3.556     3.9915
pair_coeff 27 36 lj/cut 0.239    3.556     3.9915
pair_coeff 28 36 lj/cut 0.239    3.556     3.9915
pair_coeff 29 36 lj/cut 0.239    3.556     3.9915
pair_coeff 30 36 lj/cut 0.239    3.556     3.9915
pair_coeff 31 36 lj/cut 0.239    3.556     3.9915
pair_coeff 32 36 lj/cut 0.239    3.556     3.9915
pair_coeff 33 36 lj/cut 0.239    3.556     3.9915
pair_coeff 34 36 lj/cut 0.239    3.556     3.9915
pair_coeff 15 37 lj/cut 0.239    4.8725     5.4692
pair_coeff 16 37 lj/cut 0.239    4.8725     5.4692
pair_coeff 17 37 lj/cut 0.239    4.8725     5.4692
pair_coeff 18 37 lj/cut 0.239    4.8725     5.4692
pair_coeff 19 37 lj/cut 0.239    4.8725     5.4692
pair_coeff 20 37 lj/cut 0.239    4.8725     5.4692
pair_coeff 21 37 lj/cut 0.239    4.8725     5.4692
pair_coeff 22 37 lj/cut 0.239    4.8725     5.4692
pair_coeff 23 37 lj/cut 0.239    4.8725     5.4692
pair_coeff 24 37 lj/cut 0.239    4.8725     5.4692
pair_coeff 25 37 lj/cut 0.239    4.8725     5.4692
pair_coeff 26 37 lj/cut 0.239    4.8725     5.4692
pair_coeff 27 37 lj/cut 0.239    4.8725     5.4692
pair_coeff 28 37 lj/cut 0.239    4.8725     5.4692
pair_coeff 29 37 lj/cut 0.239    4.8725     5.4692
pair_coeff 30 37 lj/cut 0.239    4.8725     5.4692
pair_coeff 31 37 lj/cut 0.239    4.8725     5.4692
pair_coeff 32 37 lj/cut 0.239    4.8725     5.4692
pair_coeff 33 37 lj/cut 0.239    4.8725     5.4692
pair_coeff 34 37 lj/cut 0.239    4.8725     5.4692

###########################################################################################################################

# protein dna pair-wise LJ interaction
pair_coeff      1     15 lj/cut      0.02987572      5.70000000     6.3980     
pair_coeff      1     16 lj/cut      0.02987572      5.70000000     6.3980     
pair_coeff      1     17 lj/cut      0.02987572      5.70000000     6.3980     
pair_coeff      1     18 lj/cut      0.02987572      5.70000000     6.3980     
pair_coeff      1     19 lj/cut      0.02987572      5.70000000     6.3980     
pair_coeff      1     20 lj/cut      0.02987572      5.70000000     6.3980     
pair_coeff      1     21 lj/cut      0.02987572      5.70000000     6.3980     
pair_coeff      1     22 lj/cut      0.02987572      5.70000000     6.3980     
pair_coeff      1     23 lj/cut      0.02987572      5.70000000     6.3980     
pair_coeff      1     24 lj/cut      0.02987572      5.70000000     6.3980     
pair_coeff      1     25 lj/cut      0.02987572      5.70000000     6.3980     
pair_coeff      1     26 lj/cut      0.02987572      5.70000000     6.3980     
pair_coeff      1     27 lj/cut      0.02987572      5.70000000     6.3980     
pair_coeff      1     28 lj/cut      0.02987572      5.70000000     6.3980     
pair_coeff      1     29 lj/cut      0.02987572      5.70000000     6.3980     
pair_coeff      1     30 lj/cut      0.02987572      5.70000000     6.3980     
pair_coeff      1     31 lj/cut      0.02987572      5.70000000     6.3980     
pair_coeff      1     32 lj/cut      0.02987572      5.70000000     6.3980     
pair_coeff      1     33 lj/cut      0.02987572      5.70000000     6.3980     
pair_coeff      1     34 lj/cut      0.02987572      5.70000000     6.3980     
pair_coeff      2     15 lj/cut      0.02987572      5.70000000     6.3980     
pair_coeff      2     16 lj/cut      0.02987572      5.70000000     6.3980     
pair_coeff      2     17 lj/cut      0.02987572      5.70000000     6.3980     
pair_coeff      2     18 lj/cut      0.02987572      5.70000000     6.3980     
pair_coeff      2     19 lj/cut      0.02987572      5.70000000     6.3980     
pair_coeff      2     20 lj/cut      0.02987572      5.70000000     6.3980     
pair_coeff      2     21 lj/cut      0.02987572      5.70000000     6.3980     
pair_coeff      2     22 lj/cut      0.02987572      5.70000000     6.3980     
pair_coeff      2     23 lj/cut      0.02987572      5.70000000     6.3980     
pair_coeff      2     24 lj/cut      0.02987572      5.70000000     6.3980     
pair_coeff      2     25 lj/cut      0.02987572      5.70000000     6.3980     
pair_coeff      2     26 lj/cut      0.02987572      5.70000000     6.3980     
pair_coeff      2     27 lj/cut      0.02987572      5.70000000     6.3980     
pair_coeff      2     28 lj/cut      0.02987572      5.70000000     6.3980     
pair_coeff      2     29 lj/cut      0.02987572      5.70000000     6.3980     
pair_coeff      2     30 lj/cut      0.02987572      5.70000000     6.3980     
pair_coeff      2     31 lj/cut      0.02987572      5.70000000     6.3980     
pair_coeff      2     32 lj/cut      0.02987572      5.70000000     6.3980     
pair_coeff      2     33 lj/cut      0.02987572      5.70000000     6.3980     
pair_coeff      2     34 lj/cut      0.02987572      5.70000000     6.3980     
pair_coeff      3     15 lj/cut      0.02987572      5.70000000     6.3980     
pair_coeff      3     16 lj/cut      0.02987572      5.70000000     6.3980     
pair_coeff      3     17 lj/cut      0.02987572      5.70000000     6.3980     
pair_coeff      3     18 lj/cut      0.02987572      5.70000000     6.3980     
pair_coeff      3     19 lj/cut      0.02987572      5.70000000     6.3980     
pair_coeff      3     20 lj/cut      0.02987572      5.70000000     6.3980     
pair_coeff      3     21 lj/cut      0.02987572      5.70000000     6.3980     
pair_coeff      3     22 lj/cut      0.02987572      5.70000000     6.3980     
pair_coeff      3     23 lj/cut      0.02987572      5.70000000     6.3980     
pair_coeff      3     24 lj/cut      0.02987572      5.70000000     6.3980     
pair_coeff      3     25 lj/cut      0.02987572      5.70000000     6.3980     
pair_coeff      3     26 lj/cut      0.02987572      5.70000000     6.3980     
pair_coeff      3     27 lj/cut      0.02987572      5.70000000     6.3980     
pair_coeff      3     28 lj/cut      0.02987572      5.70000000     6.3980     
pair_coeff      3     29 lj/cut      0.02987572      5.70000000     6.3980     
pair_coeff      3     30 lj/cut      0.02987572      5.70000000     6.3980     
pair_coeff      3     31 lj/cut      0.02987572      5.70000000     6.3980     
pair_coeff      3     32 lj/cut      0.02987572      5.70000000     6.3980     
pair_coeff      3     33 lj/cut      0.02987572      5.70000000     6.3980     
pair_coeff      3     34 lj/cut      0.02987572      5.70000000     6.3980     
pair_coeff      4     15 lj/cut      0.02987572      5.70000000     6.3980     
pair_coeff      4     16 lj/cut      0.02987572      5.70000000     6.3980     
pair_coeff      4     17 lj/cut      0.02987572      5.70000000     6.3980     
pair_coeff      4     18 lj/cut      0.02987572      5.70000000     6.3980     
pair_coeff      4     19 lj/cut      0.02987572      5.70000000     6.3980     
pair_coeff      4     20 lj/cut      0.02987572      5.70000000     6.3980     
pair_coeff      4     21 lj/cut      0.02987572      5.70000000     6.3980     
pair_coeff      4     22 lj/cut      0.02987572      5.70000000     6.3980     
pair_coeff      4     23 lj/cut      0.02987572      5.70000000     6.3980     
pair_coeff      4     24 lj/cut      0.02987572      5.70000000     6.3980     
pair_coeff      4     25 lj/cut      0.02987572      5.70000000     6.3980     
pair_coeff      4     26 lj/cut      0.02987572      5.70000000     6.3980     
pair_coeff      4     27 lj/cut      0.02987572      5.70000000     6.3980     
pair_coeff      4     28 lj/cut      0.02987572      5.70000000     6.3980     
pair_coeff      4     29 lj/cut      0.02987572      5.70000000     6.3980     
pair_coeff      4     30 lj/cut      0.02987572      5.70000000     6.3980     
pair_coeff      4     31 lj/cut      0.02987572      5.70000000     6.3980     
pair_coeff      4     32 lj/cut      0.02987572      5.70000000     6.3980     
pair_coeff      4     33 lj/cut      0.02987572      5.70000000     6.3980     
pair_coeff      4     34 lj/cut      0.02987572      5.70000000     6.3980     
pair_coeff      5     15 lj/cut      0.02987572      5.70000000     6.3980     
pair_coeff      5     16 lj/cut      0.02987572      5.70000000     6.3980     
pair_coeff      5     17 lj/cut      0.02987572      5.70000000     6.3980     
pair_coeff      5     18 lj/cut      0.02987572      5.70000000     6.3980     
pair_coeff      5     19 lj/cut      0.02987572      5.70000000     6.3980     
pair_coeff      5     20 lj/cut      0.02987572      5.70000000     6.3980     
pair_coeff      5     21 lj/cut      0.02987572      5.70000000     6.3980     
pair_coeff      5     22 lj/cut      0.02987572      5.70000000     6.3980     
pair_coeff      5     23 lj/cut      0.02987572      5.70000000     6.3980     
pair_coeff      5     24 lj/cut      0.02987572      5.70000000     6.3980     
pair_coeff      5     25 lj/cut      0.02987572      5.70000000     6.3980     
pair_coeff      5     26 lj/cut      0.02987572      5.70000000     6.3980     
pair_coeff      5     27 lj/cut      0.02987572      5.70000000     6.3980     
pair_coeff      5     28 lj/cut      0.02987572      5.70000000     6.3980     
pair_coeff      5     29 lj/cut      0.02987572      5.70000000     6.3980     
pair_coeff      5     30 lj/cut      0.02987572      5.70000000     6.3980     
pair_coeff      5     31 lj/cut      0.02987572      5.70000000     6.3980     
pair_coeff      5     32 lj/cut      0.02987572      5.70000000     6.3980     
pair_coeff      5     33 lj/cut      0.02987572      5.70000000     6.3980     
pair_coeff      5     34 lj/cut      0.02987572      5.70000000     6.3980     
pair_coeff      6     15 lj/cut      0.02987572      5.70000000     6.3980     
pair_coeff      6     16 lj/cut      0.02987572      5.70000000     6.3980     
pair_coeff      6     17 lj/cut      0.02987572      5.70000000     6.3980     
pair_coeff      6     18 lj/cut      0.02987572      5.70000000     6.3980     
pair_coeff      6     19 lj/cut      0.02987572      5.70000000     6.3980     
pair_coeff      6     20 lj/cut      0.02987572      5.70000000     6.3980     
pair_coeff      6     21 lj/cut      0.02987572      5.70000000     6.3980     
pair_coeff      6     22 lj/cut      0.02987572      5.70000000     6.3980     
pair_coeff      6     23 lj/cut      0.02987572      5.70000000     6.3980     
pair_coeff      6     24 lj/cut      0.02987572      5.70000000     6.3980     
pair_coeff      6     25 lj/cut      0.02987572      5.70000000     6.3980     
pair_coeff      6     26 lj/cut      0.02987572      5.70000000     6.3980     
pair_coeff      6     27 lj/cut      0.02987572      5.70000000     6.3980     
pair_coeff      6     28 lj/cut      0.02987572      5.70000000     6.3980     
pair_coeff      6     29 lj/cut      0.02987572      5.70000000     6.3980     
pair_coeff      6     30 lj/cut      0.02987572      5.70000000     6.3980     
pair_coeff      6     31 lj/cut      0.02987572      5.70000000     6.3980     
pair_coeff      6     32 lj/cut      0.02987572      5.70000000     6.3980     
pair_coeff      6     33 lj/cut      0.02987572      5.70000000     6.3980     
pair_coeff      6     34 lj/cut      0.02987572      5.70000000     6.3980     
pair_coeff      7     15 lj/cut      0.02987572      5.70000000     6.3980     
pair_coeff      7     16 lj/cut      0.02987572      5.70000000     6.3980     
pair_coeff      7     17 lj/cut      0.02987572      5.70000000     6.3980     
pair_coeff      7     18 lj/cut      0.02987572      5.70000000     6.3980     
pair_coeff      7     19 lj/cut      0.02987572      5.70000000     6.3980     
pair_coeff      7     20 lj/cut      0.02987572      5.70000000     6.3980     
pair_coeff      7     21 lj/cut      0.02987572      5.70000000     6.3980     
pair_coeff      7     22 lj/cut      0.02987572      5.70000000     6.3980     
pair_coeff      7     23 lj/cut      0.02987572      5.70000000     6.3980     
pair_coeff      7     24 lj/cut      0.02987572      5.70000000     6.3980     
pair_coeff      7     25 lj/cut      0.02987572      5.70000000     6.3980     
pair_coeff      7     26 lj/cut      0.02987572      5.70000000     6.3980     
pair_coeff      7     27 lj/cut      0.02987572      5.70000000     6.3980     
pair_coeff      7     28 lj/cut      0.02987572      5.70000000     6.3980     
pair_coeff      7     29 lj/cut      0.02987572      5.70000000     6.3980     
pair_coeff      7     30 lj/cut      0.02987572      5.70000000     6.3980     
pair_coeff      7     31 lj/cut      0.02987572      5.70000000     6.3980     
pair_coeff      7     32 lj/cut      0.02987572      5.70000000     6.3980     
pair_coeff      7     33 lj/cut      0.02987572      5.70000000     6.3980     
pair_coeff      7     34 lj/cut      0.02987572      5.70000000     6.3980     
pair_coeff      8     15 lj/cut      0.02987572      5.70000000     6.3980     
pair_coeff      8     16 lj/cut      0.02987572      5.70000000     6.3980     
pair_coeff      8     17 lj/cut      0.02987572      5.70000000     6.3980     
pair_coeff      8     18 lj/cut      0.02987572      5.70000000     6.3980     
pair_coeff      8     19 lj/cut      0.02987572      5.70000000     6.3980     
pair_coeff      8     20 lj/cut      0.02987572      5.70000000     6.3980     
pair_coeff      8     21 lj/cut      0.02987572      5.70000000     6.3980     
pair_coeff      8     22 lj/cut      0.02987572      5.70000000     6.3980     
pair_coeff      8     23 lj/cut      0.02987572      5.70000000     6.3980     
pair_coeff      8     24 lj/cut      0.02987572      5.70000000     6.3980     
pair_coeff      8     25 lj/cut      0.02987572      5.70000000     6.3980     
pair_coeff      8     26 lj/cut      0.02987572      5.70000000     6.3980     
pair_coeff      8     27 lj/cut      0.02987572      5.70000000     6.3980     
pair_coeff      8     28 lj/cut      0.02987572      5.70000000     6.3980     
pair_coeff      8     29 lj/cut      0.02987572      5.70000000     6.3980     
pair_coeff      8     30 lj/cut      0.02987572      5.70000000     6.3980     
pair_coeff      8     31 lj/cut      0.02987572      5.70000000     6.3980     
pair_coeff      8     32 lj/cut      0.02987572      5.70000000     6.3980     
pair_coeff      8     33 lj/cut      0.02987572      5.70000000     6.3980     
pair_coeff      8     34 lj/cut      0.02987572      5.70000000     6.3980     
pair_coeff      9     15 lj/cut      0.02987572      5.70000000     6.3980     
pair_coeff      9     16 lj/cut      0.02987572      5.70000000     6.3980     
pair_coeff      9     17 lj/cut      0.02987572      5.70000000     6.3980     
pair_coeff      9     18 lj/cut      0.02987572      5.70000000     6.3980     